(set-logic QF_S)
(declare-fun _var_0xINPUT_196604_() String)
(declare-fun __woorpje_diseq_pref0_() String)
(declare-fun __woorpje_diseq_suf_l0_() String)
(declare-fun __woorpje_diseq_suf_r0_() String)
(assert (=(str.++  "WXCNyMfwTO" "")(str.++ __woorpje_diseq_pref0_  "M" __woorpje_diseq_suf_l0_  "")) )
(assert (=(str.++ _var_0xINPUT_196604_  "")(str.++ __woorpje_diseq_pref0_  "O" __woorpje_diseq_suf_r0_  "")) )
(check-sat)
